language Essence 1.3

letting codeWordLength be 32
letting dist be
        function((1, 1) --> 0, (1, 2) --> 15, (1, 3) --> 10, (1, 4) --> 2, (1, 5) --> 10, (1, 6) --> 4, (1, 7) --> 7,
                 (1, 8) --> 10, (1, 9) --> 9, (1, 10) --> 11, (1, 11) --> 6, (1, 12) --> 4, (1, 13) --> 13,
                 (1, 14) --> 4, (1, 15) --> 20, (1, 16) --> 19, (1, 17) --> 4, (1, 18) --> 20, (1, 19) --> 0,
                 (1, 20) --> 11, (1, 21) --> 15, (1, 22) --> 10, (2, 1) --> 15, (2, 2) --> 0, (2, 3) --> 20,
                 (2, 4) --> 11, (2, 5) --> 1, (2, 6) --> 2, (2, 7) --> 7, (2, 8) --> 17, (2, 9) --> 8, (2, 10) --> 7,
                 (2, 11) --> 12, (2, 12) --> 9, (2, 13) --> 5, (2, 14) --> 13, (2, 15) --> 4, (2, 16) --> 0,
                 (2, 17) --> 1, (2, 18) --> 3, (2, 19) --> 15, (2, 20) --> 12, (2, 21) --> 3, (2, 22) --> 10,
                 (3, 1) --> 10, (3, 2) --> 20, (3, 3) --> 0, (3, 4) --> 2, (3, 5) --> 15, (3, 6) --> 13, (3, 7) --> 14,
                 (3, 8) --> 5, (3, 9) --> 5, (3, 10) --> 17, (3, 11) --> 5, (3, 12) --> 5, (3, 13) --> 17,
                 (3, 14) --> 0, (3, 15) --> 11, (3, 16) --> 5, (3, 17) --> 20, (3, 18) --> 7, (3, 19) --> 10,
                 (3, 20) --> 2, (3, 21) --> 4, (3, 22) --> 16, (4, 1) --> 2, (4, 2) --> 11, (4, 3) --> 2, (4, 4) --> 0,
                 (4, 5) --> 9, (4, 6) --> 0, (4, 7) --> 10, (4, 8) --> 12, (4, 9) --> 4, (4, 10) --> 11, (4, 11) --> 10,
                 (4, 12) --> 15, (4, 13) --> 20, (4, 14) --> 19, (4, 15) --> 8, (4, 16) --> 0, (4, 17) --> 10,
                 (4, 18) --> 19, (4, 19) --> 12, (4, 20) --> 17, (4, 21) --> 16, (4, 22) --> 18, (5, 1) --> 10,
                 (5, 2) --> 1, (5, 3) --> 15, (5, 4) --> 9, (5, 5) --> 0, (5, 6) --> 2, (5, 7) --> 4, (5, 8) --> 3,
                 (5, 9) --> 4, (5, 10) --> 8, (5, 11) --> 13, (5, 12) --> 15, (5, 13) --> 20, (5, 14) --> 4,
                 (5, 15) --> 14, (5, 16) --> 18, (5, 17) --> 15, (5, 18) --> 3, (5, 19) --> 1, (5, 20) --> 2,
                 (5, 21) --> 15, (5, 22) --> 5, (6, 1) --> 4, (6, 2) --> 2, (6, 3) --> 13, (6, 4) --> 0, (6, 5) --> 2,
                 (6, 6) --> 0, (6, 7) --> 11, (6, 8) --> 19, (6, 9) --> 4, (6, 10) --> 17, (6, 11) --> 3, (6, 12) --> 2,
                 (6, 13) --> 11, (6, 14) --> 15, (6, 15) --> 7, (6, 16) --> 10, (6, 17) --> 0, (6, 18) --> 8,
                 (6, 19) --> 3, (6, 20) --> 20, (6, 21) --> 9, (6, 22) --> 1, (7, 1) --> 7, (7, 2) --> 7, (7, 3) --> 14,
                 (7, 4) --> 10, (7, 5) --> 4, (7, 6) --> 11, (7, 7) --> 0, (7, 8) --> 19, (7, 9) --> 15, (7, 10) --> 14,
                 (7, 11) --> 10, (7, 12) --> 10, (7, 13) --> 19, (7, 14) --> 8, (7, 15) --> 1, (7, 16) --> 11,
                 (7, 17) --> 19, (7, 18) --> 17, (7, 19) --> 0, (7, 20) --> 14, (7, 21) --> 7, (7, 22) --> 5,
                 (8, 1) --> 10, (8, 2) --> 17, (8, 3) --> 5, (8, 4) --> 12, (8, 5) --> 3, (8, 6) --> 19, (8, 7) --> 19,
                 (8, 8) --> 0, (8, 9) --> 19, (8, 10) --> 2, (8, 11) --> 12, (8, 12) --> 2, (8, 13) --> 15,
                 (8, 14) --> 19, (8, 15) --> 17, (8, 16) --> 0, (8, 17) --> 2, (8, 18) --> 15, (8, 19) --> 18,
                 (8, 20) --> 14, (8, 21) --> 2, (8, 22) --> 15, (9, 1) --> 9, (9, 2) --> 8, (9, 3) --> 5, (9, 4) --> 4,
                 (9, 5) --> 4, (9, 6) --> 4, (9, 7) --> 15, (9, 8) --> 19, (9, 9) --> 0, (9, 10) --> 7, (9, 11) --> 0,
                 (9, 12) --> 3, (9, 13) --> 1, (9, 14) --> 17, (9, 15) --> 19, (9, 16) --> 20, (9, 17) --> 11,
                 (9, 18) --> 12, (9, 19) --> 8, (9, 20) --> 14, (9, 21) --> 8, (9, 22) --> 3, (10, 1) --> 11,
                 (10, 2) --> 7, (10, 3) --> 17, (10, 4) --> 11, (10, 5) --> 8, (10, 6) --> 17, (10, 7) --> 14,
                 (10, 8) --> 2, (10, 9) --> 7, (10, 10) --> 0, (10, 11) --> 8, (10, 12) --> 1, (10, 13) --> 6,
                 (10, 14) --> 5, (10, 15) --> 4, (10, 16) --> 19, (10, 17) --> 2, (10, 18) --> 16, (10, 19) --> 16,
                 (10, 20) --> 20, (10, 21) --> 2, (10, 22) --> 7, (11, 1) --> 6, (11, 2) --> 12, (11, 3) --> 5,
                 (11, 4) --> 10, (11, 5) --> 13, (11, 6) --> 3, (11, 7) --> 10, (11, 8) --> 12, (11, 9) --> 0,
                 (11, 10) --> 8, (11, 11) --> 0, (11, 12) --> 11, (11, 13) --> 7, (11, 14) --> 17, (11, 15) --> 14,
                 (11, 16) --> 4, (11, 17) --> 9, (11, 18) --> 10, (11, 19) --> 3, (11, 20) --> 13, (11, 21) --> 12,
                 (11, 22) --> 14, (12, 1) --> 4, (12, 2) --> 9, (12, 3) --> 5, (12, 4) --> 15, (12, 5) --> 15,
                 (12, 6) --> 2, (12, 7) --> 10, (12, 8) --> 2, (12, 9) --> 3, (12, 10) --> 1, (12, 11) --> 11,
                 (12, 12) --> 0, (12, 13) --> 4, (12, 14) --> 11, (12, 15) --> 13, (12, 16) --> 5, (12, 17) --> 7,
                 (12, 18) --> 4, (12, 19) --> 12, (12, 20) --> 10, (12, 21) --> 13, (12, 22) --> 4, (13, 1) --> 13,
                 (13, 2) --> 5, (13, 3) --> 17, (13, 4) --> 20, (13, 5) --> 20, (13, 6) --> 11, (13, 7) --> 19,
                 (13, 8) --> 15, (13, 9) --> 1, (13, 10) --> 6, (13, 11) --> 7, (13, 12) --> 4, (13, 13) --> 0,
                 (13, 14) --> 3, (13, 15) --> 6, (13, 16) --> 6, (13, 17) --> 0, (13, 18) --> 2, (13, 19) --> 5,
                 (13, 20) --> 10, (13, 21) --> 11, (13, 22) --> 12, (14, 1) --> 4, (14, 2) --> 13, (14, 3) --> 0,
                 (14, 4) --> 19, (14, 5) --> 4, (14, 6) --> 15, (14, 7) --> 8, (14, 8) --> 19, (14, 9) --> 17,
                 (14, 10) --> 5, (14, 11) --> 17, (14, 12) --> 11, (14, 13) --> 3, (14, 14) --> 0, (14, 15) --> 6,
                 (14, 16) --> 8, (14, 17) --> 11, (14, 18) --> 20, (14, 19) --> 0, (14, 20) --> 9, (14, 21) --> 18,
                 (14, 22) --> 20, (15, 1) --> 20, (15, 2) --> 4, (15, 3) --> 11, (15, 4) --> 8, (15, 5) --> 14,
                 (15, 6) --> 7, (15, 7) --> 1, (15, 8) --> 17, (15, 9) --> 19, (15, 10) --> 4, (15, 11) --> 14,
                 (15, 12) --> 13, (15, 13) --> 6, (15, 14) --> 6, (15, 15) --> 0, (15, 16) --> 1, (15, 17) --> 17,
                 (15, 18) --> 0, (15, 19) --> 12, (15, 20) --> 5, (15, 21) --> 15, (15, 22) --> 16, (16, 1) --> 19,
                 (16, 2) --> 0, (16, 3) --> 5, (16, 4) --> 0, (16, 5) --> 18, (16, 6) --> 10, (16, 7) --> 11,
                 (16, 8) --> 0, (16, 9) --> 20, (16, 10) --> 19, (16, 11) --> 4, (16, 12) --> 5, (16, 13) --> 6,
                 (16, 14) --> 8, (16, 15) --> 1, (16, 16) --> 0, (16, 17) --> 16, (16, 18) --> 17, (16, 19) --> 14,
                 (16, 20) --> 20, (16, 21) --> 11, (16, 22) --> 0, (17, 1) --> 4, (17, 2) --> 1, (17, 3) --> 20,
                 (17, 4) --> 10, (17, 5) --> 15, (17, 6) --> 0, (17, 7) --> 19, (17, 8) --> 2, (17, 9) --> 11,
                 (17, 10) --> 2, (17, 11) --> 9, (17, 12) --> 7, (17, 13) --> 0, (17, 14) --> 11, (17, 15) --> 17,
                 (17, 16) --> 16, (17, 17) --> 0, (17, 18) --> 4, (17, 19) --> 11, (17, 20) --> 15, (17, 21) --> 1,
                 (17, 22) --> 6, (18, 1) --> 20, (18, 2) --> 3, (18, 3) --> 7, (18, 4) --> 19, (18, 5) --> 3,
                 (18, 6) --> 8, (18, 7) --> 17, (18, 8) --> 15, (18, 9) --> 12, (18, 10) --> 16, (18, 11) --> 10,
                 (18, 12) --> 4, (18, 13) --> 2, (18, 14) --> 20, (18, 15) --> 0, (18, 16) --> 17, (18, 17) --> 4,
                 (18, 18) --> 0, (18, 19) --> 10, (18, 20) --> 12, (18, 21) --> 18, (18, 22) --> 8, (19, 1) --> 0,
                 (19, 2) --> 15, (19, 3) --> 10, (19, 4) --> 12, (19, 5) --> 1, (19, 6) --> 3, (19, 7) --> 0,
                 (19, 8) --> 18, (19, 9) --> 8, (19, 10) --> 16, (19, 11) --> 3, (19, 12) --> 12, (19, 13) --> 5,
                 (19, 14) --> 0, (19, 15) --> 12, (19, 16) --> 14, (19, 17) --> 11, (19, 18) --> 10, (19, 19) --> 0,
                 (19, 20) --> 16, (19, 21) --> 13, (19, 22) --> 18, (20, 1) --> 11, (20, 2) --> 12, (20, 3) --> 2,
                 (20, 4) --> 17, (20, 5) --> 2, (20, 6) --> 20, (20, 7) --> 14, (20, 8) --> 14, (20, 9) --> 14,
                 (20, 10) --> 20, (20, 11) --> 13, (20, 12) --> 10, (20, 13) --> 10, (20, 14) --> 9, (20, 15) --> 5,
                 (20, 16) --> 20, (20, 17) --> 15, (20, 18) --> 12, (20, 19) --> 16, (20, 20) --> 0, (20, 21) --> 3,
                 (20, 22) --> 16, (21, 1) --> 15, (21, 2) --> 3, (21, 3) --> 4, (21, 4) --> 16, (21, 5) --> 15,
                 (21, 6) --> 9, (21, 7) --> 7, (21, 8) --> 2, (21, 9) --> 8, (21, 10) --> 2, (21, 11) --> 12,
                 (21, 12) --> 13, (21, 13) --> 11, (21, 14) --> 18, (21, 15) --> 15, (21, 16) --> 11, (21, 17) --> 1,
                 (21, 18) --> 18, (21, 19) --> 13, (21, 20) --> 3, (21, 21) --> 0, (21, 22) --> 11, (22, 1) --> 10,
                 (22, 2) --> 10, (22, 3) --> 16, (22, 4) --> 18, (22, 5) --> 5, (22, 6) --> 1, (22, 7) --> 5,
                 (22, 8) --> 15, (22, 9) --> 3, (22, 10) --> 7, (22, 11) --> 14, (22, 12) --> 4, (22, 13) --> 12,
                 (22, 14) --> 20, (22, 15) --> 16, (22, 16) --> 0, (22, 17) --> 6, (22, 18) --> 8, (22, 19) --> 18,
                 (22, 20) --> 16, (22, 21) --> 11, (22, 22) --> 0)
letting maxDist be 34
letting minDist be 71
letting nbCharacter be 22
letting numOfCodeWords be 7
